(set-info :smt-lib-version 2.6)
(set-logic QF_LIA)
(set-info :category "industrial")
(set-info :status sat)
(declare-fun x0 () Int)
(declare-fun x1 () Int)
(declare-fun x10 () Int)
(declare-fun x11 () Int)
(declare-fun x12 () Int)
(declare-fun x13 () Int)
(declare-fun x14 () Int)
(declare-fun x15 () Int)
(declare-fun x16 () Int)
(declare-fun x17 () Int)
(declare-fun x18 () Int)
(declare-fun x19 () Int)
(declare-fun x2 () Int)
(declare-fun x3 () Int)
(declare-fun x4 () Int)
(declare-fun x5 () Int)
(declare-fun x6 () Int)
(declare-fun x7 () Int)
(declare-fun x8 () Int)
(declare-fun x9 () Int)
(assert (let ((?v_7 (* 0 x0)) (?v_13 (* 0 x1)) (?v_3 (* 1 x10)) (?v_0 (* 0 x14)) (?v_4 (* 0 x16)) (?v_1 (* 0 x3)) (?v_11 (* 0 x6)) (?v_34 (* 0 x7)) (?v_30 (* 1 x8)) (?v_2 (* 0 x11)) (?v_9 (* 0 x15)) (?v_20 (* 1 x18)) (?v_5 (* 0 x4)) (?v_12 (* 1 x17)) (?v_6 (* 0 x9)) (?v_41 (* 1 x15)) (?v_10 (* 0 x2)) (?v_16 (* 0 x5)) (?v_29 (* 1 x6)) (?v_15 (* 0 x13)) (?v_27 (* 1 x14)) (?v_19 (* 0 x18)) (?v_42 (* 1 x5)) (?v_18 (* 0 x10)) (?v_28 (* 0 x17)) (?v_21 (* 1 x3)) (?v_23 (* 1 x19)) (?v_25 (* 1 x1)) (?v_53 (* 0 x8)) (?v_51 (* 2 x1)) (?v_36 (* 1 x13)) (?v_39 (* 1 x9)) (?v_35 (* 1 x11)) (?v_40 (* 0 x12)) (?v_33 (* 1 x2)) (?v_59 (* 1 x4)) (?v_57 (* 1 x16)) (?v_54 (* 1 x12)) (?v_58 (* 1 x7)) (?v_48 (* 0 x19)) (?v_17 (* (- 1) x11)) (?v_8 (* (- 1) x12)) (?v_31 (* (- 1) x17)) (?v_55 (* (- 1) x0)) (?v_26 (* (- 1) x16)) (?v_14 (* (- 2) x7)) (?v_37 (* (- 1) x19)) (?v_56 (* (- 1) x14)) (?v_45 (* (- 1) x18)) (?v_50 (* (- 1) x3)) (?v_43 (* (- 1) x1)) (?v_24 (* (- 1) x15)) (?v_38 (* (- 1) x4)) (?v_22 (* (- 1) x7)) (?v_46 (* (- 1) x5)) (?v_47 (* (- 1) x6)) (?v_52 (* (- 1) x8)) (?v_32 (* (- 1) x9)) (?v_49 (* (- 1) x13)) (?v_44 (* (- 1) x10))) (and (<= (+ ?v_7 (+ ?v_17 (+ ?v_13 (+ ?v_3 (+ (* (- 2) x19) (+ ?v_8 (+ ?v_0 (+ ?v_31 (+ ?v_4 (+ ?v_1 (+ ?v_11 (+ ?v_34 ?v_30)))))))))))) (- 1)) (<= (+ ?v_55 (+ ?v_2 (+ ?v_0 (+ ?v_9 (+ (* (- 2) x6) (+ (* 2 x13) (+ ?v_26 (+ ?v_1 (+ ?v_20 (+ ?v_5 (+ ?v_12 (+ ?v_14 (+ ?v_37 ?v_6))))))))))))) 1) (<= (+ (* 2 x0) (+ ?v_2 (+ ?v_56 (+ ?v_3 (+ ?v_41 (+ (* (- 3) x17) (+ ?v_45 (+ ?v_50 (+ ?v_4 (+ ?v_10 (+ ?v_5 (+ ?v_16 (+ ?v_6 ?v_29))))))))))))) 0) (<= (+ ?v_7 (+ ?v_43 (+ ?v_2 (+ ?v_3 (+ ?v_8 (+ ?v_15 (+ ?v_9 (+ ?v_27 (+ ?v_19 (+ ?v_10 (+ ?v_11 (+ ?v_6 (+ ?v_12 ?v_42))))))))))))) (- 1)) (<= (+ ?v_13 (+ ?v_18 (+ ?v_14 (+ ?v_8 (+ ?v_15 (+ ?v_9 (+ ?v_28 (+ ?v_21 (+ ?v_5 (+ ?v_16 (+ ?v_6 ?v_23))))))))))) 0) (<= (+ ?v_7 (+ ?v_17 (+ ?v_25 (+ ?v_18 (+ ?v_8 (+ ?v_24 (+ ?v_19 (+ ?v_38 (+ ?v_11 (+ ?v_22 (+ ?v_53 ?v_6))))))))))) 0) (<= (+ ?v_17 (+ ?v_46 (+ ?v_47 (+ ?v_51 (+ ?v_18 (+ ?v_8 (+ ?v_0 (+ ?v_36 (+ ?v_20 (+ ?v_21 (+ ?v_22 (+ ?v_52 (+ ?v_23 ?v_39))))))))))))) 1) (<= (+ ?v_24 (+ ?v_25 (+ ?v_35 (+ (* (- 2) x4) (+ ?v_26 (+ ?v_32 (+ ?v_40 (+ ?v_15 (+ ?v_27 (+ ?v_28 (+ ?v_33 (+ ?v_29 ?v_30)))))))))))) 0) (<= (+ ?v_0 (+ ?v_25 (+ ?v_3 (+ ?v_49 (+ ?v_31 (+ ?v_32 (+ ?v_19 (+ ?v_16 (+ ?v_21 (+ ?v_11 (+ ?v_33 (+ ?v_59 ?v_34)))))))))))) 1) (<= (+ ?v_24 (+ ?v_0 (+ ?v_3 (+ ?v_35 (+ ?v_36 (+ ?v_57 (+ ?v_20 (+ ?v_37 (+ (* (- 1) x2) (+ ?v_38 (+ ?v_11 (+ ?v_34 (+ ?v_54 ?v_39))))))))))))) 0) (<= (+ ?v_7 (+ (* (- 2) x11) (+ ?v_44 (+ ?v_32 (+ ?v_40 (+ ?v_15 (+ ?v_27 (+ ?v_41 (+ ?v_4 (+ ?v_28 (+ ?v_5 (+ ?v_42 ?v_58)))))))))))) 0) (<= (+ ?v_7 (+ ?v_43 (+ ?v_2 (+ ?v_3 (+ ?v_40 (+ ?v_15 (+ ?v_9 (+ ?v_27 (+ ?v_4 (+ ?v_48 (+ (* 2 x5) ?v_34))))))))))) 0) (<= (+ ?v_7 (+ ?v_44 (+ ?v_2 (+ ?v_45 (+ ?v_46 (+ ?v_47 (+ ?v_40 (+ ?v_41 (+ ?v_12 (+ ?v_48 (+ ?v_5 ?v_34))))))))))) 1) (<= (+ ?v_7 (+ ?v_17 (+ ?v_13 (+ ?v_18 (+ (* (- 2) x18) (+ ?v_49 (+ (* 3 x15) (+ ?v_50 (+ ?v_38 (+ ?v_46 (+ ?v_4 (+ ?v_48 (+ ?v_10 (+ ?v_11 ?v_6)))))))))))))) (- 1)) (<= (+ ?v_17 (+ (* (- 2) x14) (+ ?v_1 (+ ?v_16 (+ ?v_47 (+ ?v_51 (+ ?v_52 (+ ?v_18 (+ ?v_36 (+ ?v_31 (+ ?v_4 (+ ?v_19 (+ ?v_23 (+ ?v_33 ?v_39)))))))))))))) 1) (<= (+ ?v_45 (+ ?v_1 (+ ?v_36 (+ ?v_38 (+ ?v_47 (+ ?v_4 (+ ?v_16 (+ ?v_53 (+ ?v_6 (+ ?v_12 ?v_22)))))))))) (- 1)) (<= (+ ?v_24 (+ ?v_13 (+ ?v_0 (+ ?v_52 (+ ?v_48 (+ ?v_10 (+ ?v_16 (+ ?v_6 (+ ?v_54 (+ ?v_21 ?v_29)))))))))) 0) (<= (+ ?v_55 (+ ?v_56 (+ ?v_18 (+ ?v_15 (+ ?v_9 (+ ?v_38 (+ ?v_57 (+ ?v_12 (+ ?v_48 (+ ?v_1 (+ ?v_16 (+ ?v_11 ?v_58)))))))))))) 1) (<= (+ ?v_7 (+ ?v_17 (+ ?v_24 (+ ?v_13 (+ ?v_0 (+ ?v_3 (+ ?v_45 (+ ?v_15 (+ ?v_1 (+ ?v_16 (+ ?v_33 (+ ?v_34 (+ ?v_23 (+ ?v_30 ?v_39)))))))))))))) 0) (<= (+ ?v_9 (+ ?v_50 (+ ?v_52 (+ ?v_3 (+ ?v_35 (+ ?v_28 (+ ?v_19 (+ ?v_10 (+ ?v_34 (+ ?v_54 (+ ?v_36 (+ ?v_59 (* 2 x19))))))))))))) (- 1)))))
(check-sat)
(exit)
